
Gurobi 9.1.2 (win64) logging started Sun Dec  5 21:15:28 2021

Gurobi Optimizer version 9.1.2 build v9.1.2rc0 (win64)
Thread count: 8 physical cores, 8 logical processors, using up to 8 threads
Optimize a model with 1 rows, 16 columns and 15 nonzeros
Model fingerprint: 0xf201c54f
Variable types: 1 continuous, 15 integer (15 binary)
Coefficient statistics:
  Matrix range     [1e+00, 1e+01]
  Objective range  [1e+00, 1e+00]
  Bounds range     [2e-01, 2e-01]
  RHS range        [1e+01, 1e+01]
Presolve time: 0.00s
Presolved: 1 rows, 16 columns, 15 nonzeros
Variable types: 1 continuous, 15 integer (15 binary)

Root simplex log...

Iteration    Objective       Primal Inf.    Dual Inf.      Time
       0   -2.3645500e-01   1.112266e-01   0.000000e+00     14s
       1   -2.3645500e-01   0.000000e+00   0.000000e+00     14s

Root relaxation: objective -2.364550e-01, 1 iterations, 0.00 seconds

    Nodes    |    Current Node    |     Objective Bounds      |     Work
 Expl Unexpl |  Obj  Depth IntInf | Incumbent    BestBd   Gap | It/Node Time

*    0     0               0       0.0000000    0.00000  0.00%     -   14s

Cutting planes:
  Lazy constraints: 2

Explored 0 nodes (2 simplex iterations) in 14.19 seconds
Thread count was 8 (of 8 available processors)

Solution count 1: 0 

Optimal solution found (tolerance 1.00e-04)
Best objective 0.000000000000e+00, best bound 0.000000000000e+00, gap 0.0000%

User-callback calls 80, time in user-callback 17.75 sec
